(set-logic QF_S)
(declare-fun var0 () String)
(assert (RegexIn var0 (RegexConcat (RegexPlus (RegexPlus (Str2Reg "00"))) (RegexConcat (RegexUnion (RegexStar (Str2Reg "11")) (RegexStar (Str2Reg "2"))) (RegexConcat (RegexStar (RegexPlus (Str2Reg "3"))) (RegexConcat (RegexStar (RegexStar (Str2Reg "44"))) (RegexConcat (RegexStar (RegexStar (Str2Reg "5"))) (RegexConcat (RegexStar (RegexPlus (Str2Reg "666"))) (RegexConcat (RegexStar (RegexStar (Str2Reg "7"))) (RegexConcat (RegexStar (RegexUnion (Str2Reg "888") (Str2Reg "99"))) (RegexConcat (RegexPlus (RegexPlus (Str2Reg "aa"))) (RegexConcat (RegexPlus (RegexPlus (Str2Reg "bbb"))) (RegexConcat (RegexUnion (RegexUnion (Str2Reg "c") (Str2Reg "dd")) (RegexUnion (Str2Reg "e") (Str2Reg "fff"))) (RegexConcat (RegexUnion (RegexUnion (Str2Reg "ggg") (Str2Reg "h")) (RegexUnion (Str2Reg "ii") (Str2Reg "j"))) (RegexConcat (RegexStar (RegexPlus (Str2Reg "kkk"))) (RegexConcat (RegexStar (RegexPlus (Str2Reg "l"))) (RegexConcat (RegexPlus (RegexPlus (Str2Reg "mmm"))) (RegexConcat (RegexPlus (RegexPlus (Str2Reg "nnn"))) (RegexConcat (RegexUnion (RegexPlus (Str2Reg "ooo")) (RegexPlus (Str2Reg "pp"))) (RegexConcat (RegexUnion (RegexUnion (Str2Reg "q") (Str2Reg "rr")) (RegexUnion (Str2Reg "sss") (Str2Reg "t"))) (RegexConcat (RegexStar (RegexStar (Str2Reg "uuu"))) (RegexConcat (RegexStar (RegexPlus (Str2Reg "vv"))) (RegexConcat (RegexUnion (RegexUnion (Str2Reg "ww") (Str2Reg "xx")) (RegexUnion (Str2Reg "y") (Str2Reg "zz"))) (RegexConcat (RegexStar (RegexUnion (Str2Reg "AA") (Str2Reg "B"))) (RegexConcat (RegexStar (RegexStar (Str2Reg "CC"))) (RegexConcat (RegexStar (RegexStar (Str2Reg "DD"))) (RegexConcat (RegexPlus (RegexUnion (Str2Reg "E") (Str2Reg "F"))) (RegexConcat (RegexStar (RegexPlus (Str2Reg "G"))) (RegexConcat (RegexUnion (RegexUnion (Str2Reg "HH") (Str2Reg "II")) (RegexUnion (Str2Reg "J") (Str2Reg "KK"))) (RegexConcat (RegexPlus (RegexStar (Str2Reg "LL"))) (RegexConcat (RegexStar (RegexPlus (Str2Reg "MMM"))) (RegexConcat (RegexStar (RegexUnion (Str2Reg "N") (Str2Reg "O"))) (RegexConcat (RegexStar (RegexUnion (Str2Reg "P") (Str2Reg "Q"))) (RegexConcat (RegexUnion (RegexPlus (Str2Reg "R")) (RegexPlus (Str2Reg "SS"))) (RegexConcat (RegexUnion (RegexStar (Str2Reg "T")) (RegexStar (Str2Reg "UU"))) (RegexConcat (RegexUnion (RegexStar (Str2Reg "VVV")) (RegexStar (Str2Reg "WW"))) (RegexConcat (RegexPlus (RegexUnion (Str2Reg "XX") (Str2Reg "YYY"))) (RegexConcat (RegexUnion (RegexStar (Str2Reg "Z")) (RegexStar (Str2Reg "!!"))) (RegexConcat (RegexStar (RegexStar (Str2Reg "\""))) (RegexConcat (RegexUnion (RegexUnion (Str2Reg "##") (Str2Reg "$$")) (RegexUnion (Str2Reg "%%%") (Str2Reg "&&"))) (RegexConcat (RegexPlus (RegexStar (Str2Reg "'"))) (RegexConcat (RegexPlus (RegexPlus (Str2Reg "((("))) (RegexConcat (RegexStar (RegexStar (Str2Reg ")"))) (RegexConcat (RegexUnion (RegexPlus (Str2Reg "**")) (RegexPlus (Str2Reg "++"))) (RegexConcat (RegexUnion (RegexPlus (Str2Reg ",,")) (RegexPlus (Str2Reg "---"))) (RegexConcat (RegexUnion (RegexStar (Str2Reg "...")) (RegexStar (Str2Reg "//"))) (RegexConcat (RegexUnion (RegexUnion (Str2Reg ":::") (Str2Reg ";;;")) (RegexUnion (Str2Reg "<<<") (Str2Reg "=="))) (RegexConcat (RegexPlus (RegexStar (Str2Reg ">>"))) (RegexConcat (RegexStar (RegexPlus (Str2Reg "??"))) (RegexConcat (RegexStar (RegexStar (Str2Reg "@"))) (RegexConcat (RegexStar (RegexStar (Str2Reg "[[["))) (RegexConcat (RegexStar (RegexPlus (Str2Reg "\\\\"))) (RegexConcat (RegexUnion (RegexStar (Str2Reg "]")) (RegexStar (Str2Reg "^^^"))) (RegexConcat (RegexStar (RegexUnion (Str2Reg "_") (Str2Reg "``"))) (RegexConcat (RegexStar (RegexUnion (Str2Reg "{") (Str2Reg "|||"))) (RegexConcat (RegexStar (RegexPlus (Str2Reg "}}"))) (RegexConcat (RegexStar (RegexStar (Str2Reg "~~"))) (RegexConcat (RegexStar (RegexUnion (Str2Reg "000") (Str2Reg "11"))) (RegexConcat (RegexStar (RegexPlus (Str2Reg "2"))) (RegexConcat (RegexStar (RegexStar (Str2Reg "333"))) (RegexConcat (RegexUnion (RegexUnion (Str2Reg "444") (Str2Reg "55")) (RegexUnion (Str2Reg "666") (Str2Reg "77"))) (RegexConcat (RegexUnion (RegexPlus (Str2Reg "88")) (RegexPlus (Str2Reg "9"))) (RegexConcat (RegexPlus (RegexUnion (Str2Reg "a") (Str2Reg "bb"))) (RegexConcat (RegexStar (RegexUnion (Str2Reg "c") (Str2Reg "dd"))) (RegexConcat (RegexPlus (RegexPlus (Str2Reg "eee"))) (RegexConcat (RegexUnion (RegexStar (Str2Reg "fff")) (RegexStar (Str2Reg "g"))) (RegexConcat (RegexStar (RegexUnion (Str2Reg "hh") (Str2Reg "ii"))) (RegexConcat (RegexStar (RegexUnion (Str2Reg "jjj") (Str2Reg "kkk"))) (RegexConcat (RegexUnion (RegexPlus (Str2Reg "ll")) (RegexPlus (Str2Reg "mmm"))) (RegexConcat (RegexStar (RegexPlus (Str2Reg "nn"))) (RegexConcat (RegexPlus (RegexStar (Str2Reg "oo"))) (RegexConcat (RegexPlus (RegexPlus (Str2Reg "pp"))) (RegexConcat (RegexPlus (RegexUnion (Str2Reg "qqq") (Str2Reg "r"))) (RegexConcat (RegexStar (RegexPlus (Str2Reg "ss"))) (RegexConcat (RegexStar (RegexUnion (Str2Reg "ttt") (Str2Reg "uu"))) (RegexConcat (RegexUnion (RegexUnion (Str2Reg "vv") (Str2Reg "ww")) (RegexUnion (Str2Reg "xxx") (Str2Reg "y"))) (RegexConcat (RegexUnion (RegexStar (Str2Reg "z")) (RegexStar (Str2Reg "AAA"))) (RegexConcat (RegexStar (RegexStar (Str2Reg "BB"))) (RegexConcat (RegexUnion (RegexPlus (Str2Reg "CC")) (RegexPlus (Str2Reg "D"))) (RegexConcat (RegexStar (RegexUnion (Str2Reg "E") (Str2Reg "F"))) (RegexConcat (RegexUnion (RegexPlus (Str2Reg "G")) (RegexPlus (Str2Reg "H"))) (RegexConcat (RegexStar (RegexUnion (Str2Reg "III") (Str2Reg "JJ"))) (RegexConcat (RegexUnion (RegexStar (Str2Reg "K")) (RegexStar (Str2Reg "L"))) (RegexConcat (RegexUnion (RegexPlus (Str2Reg "M")) (RegexPlus (Str2Reg "NNN"))) (RegexConcat (RegexStar (RegexStar (Str2Reg "OO"))) (RegexConcat (RegexStar (RegexUnion (Str2Reg "PPP") (Str2Reg "QQ"))) (RegexConcat (RegexUnion (RegexPlus (Str2Reg "R")) (RegexPlus (Str2Reg "SS"))) (RegexConcat (RegexPlus (RegexPlus (Str2Reg "T"))) (RegexConcat (RegexPlus (RegexUnion (Str2Reg "UUU") (Str2Reg "V"))) (RegexConcat (RegexStar (RegexUnion (Str2Reg "WW") (Str2Reg "X"))) (RegexConcat (RegexUnion (RegexUnion (Str2Reg "Y") (Str2Reg "ZZ")) (RegexUnion (Str2Reg "!!!") (Str2Reg "\"\"\""))) (RegexConcat (RegexStar (RegexStar (Str2Reg "#"))) (RegexConcat (RegexUnion (RegexPlus (Str2Reg "$$")) (RegexPlus (Str2Reg "%"))) (RegexConcat (RegexUnion (RegexStar (Str2Reg "&")) (RegexStar (Str2Reg "'''"))) (RegexConcat (RegexStar (RegexStar (Str2Reg "(("))) (RegexConcat (RegexStar (RegexPlus (Str2Reg ")))"))) (RegexConcat (RegexPlus (RegexStar (Str2Reg "*"))) (RegexConcat (RegexPlus (RegexUnion (Str2Reg "+") (Str2Reg ",,"))) (RegexConcat (RegexStar (RegexUnion (Str2Reg "---") (Str2Reg "."))) (RegexConcat (RegexStar (RegexUnion (Str2Reg "//") (Str2Reg "::"))) (RegexConcat (RegexStar (RegexUnion (Str2Reg ";;") (Str2Reg "<"))) (RegexConcat (RegexPlus (RegexPlus (Str2Reg "="))) (RegexConcat (RegexPlus (RegexPlus (Str2Reg ">"))) (RegexConcat (RegexUnion (RegexStar (Str2Reg "???")) (RegexStar (Str2Reg "@@"))) (RegexConcat (RegexUnion (RegexUnion (Str2Reg "[[") (Str2Reg "\\")) (RegexUnion (Str2Reg "]") (Str2Reg "^"))) (RegexConcat (RegexPlus (RegexPlus (Str2Reg "_"))) (RegexConcat (RegexPlus (RegexPlus (Str2Reg "```"))) (RegexConcat (RegexPlus (RegexStar (Str2Reg "{{{"))) (RegexConcat (RegexPlus (RegexPlus (Str2Reg "|"))) (RegexConcat (RegexUnion (RegexPlus (Str2Reg "}}}")) (RegexPlus (Str2Reg "~~"))) (RegexConcat (RegexPlus (RegexUnion (Str2Reg "000") (Str2Reg "11"))) (RegexConcat (RegexPlus (RegexUnion (Str2Reg "2") (Str2Reg "33"))) (RegexConcat (RegexPlus (RegexStar (Str2Reg "444"))) (RegexConcat (RegexStar (RegexPlus (Str2Reg "55"))) (RegexConcat (RegexStar (RegexUnion (Str2Reg "6") (Str2Reg "777"))) (RegexConcat (RegexStar (RegexStar (Str2Reg "8"))) (RegexConcat (RegexPlus (RegexPlus (Str2Reg "999"))) (RegexConcat (RegexStar (RegexStar (Str2Reg "aaa"))) (RegexConcat (RegexUnion (RegexUnion (Str2Reg "b") (Str2Reg "c")) (RegexUnion (Str2Reg "ddd") (Str2Reg "eee"))) (RegexConcat (RegexPlus (RegexStar (Str2Reg "ff"))) (RegexConcat (RegexPlus (RegexStar (Str2Reg "g"))) (RegexConcat (RegexPlus (RegexPlus (Str2Reg "hhh"))) (RegexConcat (RegexStar (RegexPlus (Str2Reg "iii"))) (RegexConcat (RegexUnion (RegexUnion (Str2Reg "jjj") (Str2Reg "k")) (RegexUnion (Str2Reg "l") (Str2Reg "m"))) (RegexConcat (RegexPlus (RegexUnion (Str2Reg "n") (Str2Reg "oo"))) (RegexConcat (RegexUnion (RegexPlus (Str2Reg "ppp")) (RegexPlus (Str2Reg "q"))) (RegexConcat (RegexUnion (RegexUnion (Str2Reg "r") (Str2Reg "ss")) (RegexUnion (Str2Reg "tt") (Str2Reg "uu"))) (RegexConcat (RegexStar (RegexUnion (Str2Reg "vv") (Str2Reg "w"))) (RegexConcat (RegexUnion (RegexUnion (Str2Reg "xxx") (Str2Reg "yyy")) (RegexUnion (Str2Reg "z") (Str2Reg "AA"))) (RegexConcat (RegexPlus (RegexUnion (Str2Reg "BB") (Str2Reg "CC"))) (RegexConcat (RegexPlus (RegexStar (Str2Reg "DD"))) (RegexConcat (RegexPlus (RegexStar (Str2Reg "EE"))) (RegexConcat (RegexUnion (RegexPlus (Str2Reg "F")) (RegexPlus (Str2Reg "G"))) (RegexConcat (RegexStar (RegexUnion (Str2Reg "H") (Str2Reg "III"))) (RegexConcat (RegexStar (RegexPlus (Str2Reg "J"))) (RegexConcat (RegexUnion (RegexPlus (Str2Reg "KKK")) (RegexPlus (Str2Reg "LLL"))) (RegexConcat (RegexUnion (RegexUnion (Str2Reg "M") (Str2Reg "N")) (RegexUnion (Str2Reg "OO") (Str2Reg "PPP"))) (RegexConcat (RegexPlus (RegexPlus (Str2Reg "Q"))) (RegexConcat (RegexStar (RegexPlus (Str2Reg "RRR"))) (RegexConcat (RegexUnion (RegexStar (Str2Reg "SSS")) (RegexStar (Str2Reg "T"))) (RegexConcat (RegexPlus (RegexStar (Str2Reg "U"))) (RegexConcat (RegexPlus (RegexPlus (Str2Reg "VV"))) (RegexPlus (RegexPlus (Str2Reg "WWW")))))))))))))))))))))))))))))))))))))))))))))))))))))))))))))))))))))))))))))))))))))))))))))))))))))))))))))))))))))))))))))))))))))))))))))))))
(check-sat)